c CNF file generated from BLIF2CNF script.
c Original BLIF file was blif/rd73.blif
p cnf 151 1125
1 -9 0
2 -9 0
3 -9 0
4 -9 0
5 -9 0
6 -9 0
9 -1 -2 -3 -4 -5 -6  0
-9 8 0
-1 -10 0
-2 -10 0
-3 -10 0
-4 -10 0
5 -10 0
6 -10 0
10 1 2 3 4 -5 -6  0
-10 8 0
-1 -11 0
-2 -11 0
3 -11 0
-4 -11 0
-5 -11 0
6 -11 0
11 1 2 -3 4 5 -6  0
-11 8 0
-1 -12 0
2 -12 0
-3 -12 0
-4 -12 0
-5 -12 0
6 -12 0
12 1 -2 3 4 5 -6  0
-12 8 0
1 -13 0
-2 -13 0
-3 -13 0
-4 -13 0
-5 -13 0
6 -13 0
13 -1 2 3 4 5 -6  0
-13 8 0
-1 -14 0
-2 -14 0
3 -14 0
-4 -14 0
5 -14 0
-6 -14 0
14 1 2 -3 4 -5 6  0
-14 8 0
-1 -15 0
2 -15 0
-3 -15 0
-4 -15 0
5 -15 0
-6 -15 0
15 1 -2 3 4 -5 6  0
-15 8 0
1 -16 0
-2 -16 0
-3 -16 0
-4 -16 0
5 -16 0
-6 -16 0
16 -1 2 3 4 -5 6  0
-16 8 0
-1 -17 0
2 -17 0
3 -17 0
-4 -17 0
-5 -17 0
-6 -17 0
17 1 -2 -3 4 5 6  0
-17 8 0
1 -18 0
2 -18 0
-3 -18 0
-4 -18 0
-5 -18 0
-6 -18 0
18 -1 -2 3 4 5 6  0
-18 8 0
1 -19 0
2 -19 0
3 -19 0
4 -19 0
5 -19 0
7 -19 0
19 -1 -2 -3 -4 -5 -7  0
-19 8 0
1 -20 0
2 -20 0
3 -20 0
4 -20 0
6 -20 0
7 -20 0
20 -1 -2 -3 -4 -6 -7  0
-20 8 0
1 -21 0
2 -21 0
3 -21 0
5 -21 0
6 -21 0
7 -21 0
21 -1 -2 -3 -5 -6 -7  0
-21 8 0
1 -22 0
2 -22 0
4 -22 0
5 -22 0
6 -22 0
7 -22 0
22 -1 -2 -4 -5 -6 -7  0
-22 8 0
1 -23 0
3 -23 0
4 -23 0
5 -23 0
6 -23 0
7 -23 0
23 -1 -3 -4 -5 -6 -7  0
-23 8 0
2 -24 0
3 -24 0
4 -24 0
5 -24 0
6 -24 0
7 -24 0
24 -2 -3 -4 -5 -6 -7  0
-24 8 0
-1 -25 0
-2 -25 0
-3 -25 0
-5 -25 0
6 -25 0
7 -25 0
25 1 2 3 5 -6 -7  0
-25 8 0
-1 -26 0
-2 -26 0
-3 -26 0
5 -26 0
-6 -26 0
7 -26 0
26 1 2 3 -5 6 -7  0
-26 8 0
-1 -27 0
-2 -27 0
3 -27 0
-5 -27 0
-6 -27 0
7 -27 0
27 1 2 -3 5 6 -7  0
-27 8 0
-1 -28 0
2 -28 0
-3 -28 0
-5 -28 0
-6 -28 0
7 -28 0
28 1 -2 3 5 6 -7  0
-28 8 0
-2 -29 0
-3 -29 0
4 -29 0
-5 -29 0
-6 -29 0
7 -29 0
29 2 3 -4 5 6 -7  0
-29 8 0
1 -30 0
-2 -30 0
-4 -30 0
-5 -30 0
-6 -30 0
7 -30 0
30 -1 2 4 5 6 -7  0
-30 8 0
-1 -31 0
-2 -31 0
3 -31 0
4 -31 0
-5 -31 0
-7 -31 0
31 1 2 -3 -4 5 7  0
-31 8 0
1 -32 0
-2 -32 0
-3 -32 0
4 -32 0
-5 -32 0
-7 -32 0
32 -1 2 3 -4 5 7  0
-32 8 0
-1 -33 0
-2 -33 0
-3 -33 0
4 -33 0
6 -33 0
-7 -33 0
33 1 2 3 -4 -6 7  0
-33 8 0
-1 -34 0
-2 -34 0
3 -34 0
-4 -34 0
6 -34 0
-7 -34 0
34 1 2 -3 4 -6 7  0
-34 8 0
-1 -35 0
2 -35 0
-3 -35 0
-4 -35 0
6 -35 0
-7 -35 0
35 1 -2 3 4 -6 7  0
-35 8 0
-2 -36 0
-3 -36 0
-4 -36 0
5 -36 0
6 -36 0
-7 -36 0
36 2 3 4 -5 -6 7  0
-36 8 0
-1 -37 0
2 -37 0
-3 -37 0
-5 -37 0
6 -37 0
-7 -37 0
37 1 -2 3 5 -6 7  0
-37 8 0
-1 -38 0
3 -38 0
-4 -38 0
-5 -38 0
6 -38 0
-7 -38 0
38 1 -3 4 5 -6 7  0
-38 8 0
-2 -39 0
3 -39 0
-4 -39 0
-5 -39 0
6 -39 0
-7 -39 0
39 2 -3 4 5 -6 7  0
-39 8 0
2 -40 0
-3 -40 0
-4 -40 0
-5 -40 0
6 -40 0
-7 -40 0
40 -2 3 4 5 -6 7  0
-40 8 0
-1 -41 0
2 -41 0
-3 -41 0
4 -41 0
-6 -41 0
-7 -41 0
41 1 -2 3 -4 6 7  0
-41 8 0
-1 -42 0
2 -42 0
3 -42 0
-4 -42 0
-6 -42 0
-7 -42 0
42 1 -2 -3 4 6 7  0
-42 8 0
1 -43 0
-2 -43 0
-3 -43 0
5 -43 0
-6 -43 0
-7 -43 0
43 -1 2 3 -5 6 7  0
-43 8 0
-1 -44 0
-2 -44 0
4 -44 0
5 -44 0
-6 -44 0
-7 -44 0
44 1 2 -4 -5 6 7  0
-44 8 0
-2 -45 0
3 -45 0
-4 -45 0
5 -45 0
-6 -45 0
-7 -45 0
45 2 -3 4 -5 6 7  0
-45 8 0
2 -46 0
-3 -46 0
-4 -46 0
5 -46 0
-6 -46 0
-7 -46 0
46 -2 3 4 -5 6 7  0
-46 8 0
-1 -47 0
2 -47 0
3 -47 0
-5 -47 0
-6 -47 0
-7 -47 0
47 1 -2 -3 5 6 7  0
-47 8 0
1 -48 0
-2 -48 0
3 -48 0
-5 -48 0
-6 -48 0
-7 -48 0
48 -1 2 -3 5 6 7  0
-48 8 0
1 -49 0
2 -49 0
-3 -49 0
-5 -49 0
-6 -49 0
-7 -49 0
49 -1 -2 3 5 6 7  0
-49 8 0
2 -50 0
3 -50 0
-4 -50 0
-5 -50 0
-6 -50 0
-7 -50 0
50 -2 -3 4 5 6 7  0
-50 8 0
-8 9 10 11 12 13 14 15 16 17 18 19 20 21 22 23 24 25 26 27 28 29 30 31 32 33 34 35 36 37 38 39 40 41 42 43 44 45 46 47 48 49 50  0
1 -52 0
2 -52 0
3 -52 0
4 -52 0
5 -52 0
6 -52 0
7 -52 0
52 -1 -2 -3 -4 -5 -6 -7  0
-52 51 0
-1 -53 0
-2 -53 0
3 -53 0
4 -53 0
5 -53 0
6 -53 0
7 -53 0
53 1 2 -3 -4 -5 -6 -7  0
-53 51 0
-1 -54 0
2 -54 0
-3 -54 0
4 -54 0
5 -54 0
6 -54 0
7 -54 0
54 1 -2 3 -4 -5 -6 -7  0
-54 51 0
1 -55 0
-2 -55 0
-3 -55 0
4 -55 0
5 -55 0
6 -55 0
7 -55 0
55 -1 2 3 -4 -5 -6 -7  0
-55 51 0
-1 -56 0
2 -56 0
3 -56 0
-4 -56 0
5 -56 0
6 -56 0
7 -56 0
56 1 -2 -3 4 -5 -6 -7  0
-56 51 0
1 -57 0
-2 -57 0
3 -57 0
-4 -57 0
5 -57 0
6 -57 0
7 -57 0
57 -1 2 -3 4 -5 -6 -7  0
-57 51 0
1 -58 0
2 -58 0
-3 -58 0
-4 -58 0
5 -58 0
6 -58 0
7 -58 0
58 -1 -2 3 4 -5 -6 -7  0
-58 51 0
-1 -59 0
-2 -59 0
-3 -59 0
-4 -59 0
5 -59 0
6 -59 0
7 -59 0
59 1 2 3 4 -5 -6 -7  0
-59 51 0
-1 -60 0
2 -60 0
3 -60 0
4 -60 0
-5 -60 0
6 -60 0
7 -60 0
60 1 -2 -3 -4 5 -6 -7  0
-60 51 0
1 -61 0
-2 -61 0
3 -61 0
4 -61 0
-5 -61 0
6 -61 0
7 -61 0
61 -1 2 -3 -4 5 -6 -7  0
-61 51 0
1 -62 0
2 -62 0
-3 -62 0
4 -62 0
-5 -62 0
6 -62 0
7 -62 0
62 -1 -2 3 -4 5 -6 -7  0
-62 51 0
-1 -63 0
-2 -63 0
-3 -63 0
4 -63 0
-5 -63 0
6 -63 0
7 -63 0
63 1 2 3 -4 5 -6 -7  0
-63 51 0
1 -64 0
2 -64 0
3 -64 0
-4 -64 0
-5 -64 0
6 -64 0
7 -64 0
64 -1 -2 -3 4 5 -6 -7  0
-64 51 0
-1 -65 0
-2 -65 0
3 -65 0
-4 -65 0
-5 -65 0
6 -65 0
7 -65 0
65 1 2 -3 4 5 -6 -7  0
-65 51 0
-1 -66 0
2 -66 0
-3 -66 0
-4 -66 0
-5 -66 0
6 -66 0
7 -66 0
66 1 -2 3 4 5 -6 -7  0
-66 51 0
1 -67 0
-2 -67 0
-3 -67 0
-4 -67 0
-5 -67 0
6 -67 0
7 -67 0
67 -1 2 3 4 5 -6 -7  0
-67 51 0
-1 -68 0
2 -68 0
3 -68 0
4 -68 0
5 -68 0
-6 -68 0
7 -68 0
68 1 -2 -3 -4 -5 6 -7  0
-68 51 0
1 -69 0
-2 -69 0
3 -69 0
4 -69 0
5 -69 0
-6 -69 0
7 -69 0
69 -1 2 -3 -4 -5 6 -7  0
-69 51 0
1 -70 0
2 -70 0
-3 -70 0
4 -70 0
5 -70 0
-6 -70 0
7 -70 0
70 -1 -2 3 -4 -5 6 -7  0
-70 51 0
-1 -71 0
-2 -71 0
-3 -71 0
4 -71 0
5 -71 0
-6 -71 0
7 -71 0
71 1 2 3 -4 -5 6 -7  0
-71 51 0
1 -72 0
2 -72 0
3 -72 0
-4 -72 0
5 -72 0
-6 -72 0
7 -72 0
72 -1 -2 -3 4 -5 6 -7  0
-72 51 0
-1 -73 0
-2 -73 0
3 -73 0
-4 -73 0
5 -73 0
-6 -73 0
7 -73 0
73 1 2 -3 4 -5 6 -7  0
-73 51 0
-1 -74 0
2 -74 0
-3 -74 0
-4 -74 0
5 -74 0
-6 -74 0
7 -74 0
74 1 -2 3 4 -5 6 -7  0
-74 51 0
1 -75 0
-2 -75 0
-3 -75 0
-4 -75 0
5 -75 0
-6 -75 0
7 -75 0
75 -1 2 3 4 -5 6 -7  0
-75 51 0
1 -76 0
2 -76 0
3 -76 0
4 -76 0
-5 -76 0
-6 -76 0
7 -76 0
76 -1 -2 -3 -4 5 6 -7  0
-76 51 0
-1 -77 0
-2 -77 0
3 -77 0
4 -77 0
-5 -77 0
-6 -77 0
7 -77 0
77 1 2 -3 -4 5 6 -7  0
-77 51 0
-1 -78 0
2 -78 0
-3 -78 0
4 -78 0
-5 -78 0
-6 -78 0
7 -78 0
78 1 -2 3 -4 5 6 -7  0
-78 51 0
1 -79 0
-2 -79 0
-3 -79 0
4 -79 0
-5 -79 0
-6 -79 0
7 -79 0
79 -1 2 3 -4 5 6 -7  0
-79 51 0
-1 -80 0
2 -80 0
3 -80 0
-4 -80 0
-5 -80 0
-6 -80 0
7 -80 0
80 1 -2 -3 4 5 6 -7  0
-80 51 0
1 -81 0
-2 -81 0
3 -81 0
-4 -81 0
-5 -81 0
-6 -81 0
7 -81 0
81 -1 2 -3 4 5 6 -7  0
-81 51 0
1 -82 0
2 -82 0
-3 -82 0
-4 -82 0
-5 -82 0
-6 -82 0
7 -82 0
82 -1 -2 3 4 5 6 -7  0
-82 51 0
-1 -83 0
-2 -83 0
-3 -83 0
-4 -83 0
-5 -83 0
-6 -83 0
7 -83 0
83 1 2 3 4 5 6 -7  0
-83 51 0
-1 -84 0
2 -84 0
3 -84 0
4 -84 0
5 -84 0
6 -84 0
-7 -84 0
84 1 -2 -3 -4 -5 -6 7  0
-84 51 0
1 -85 0
-2 -85 0
3 -85 0
4 -85 0
5 -85 0
6 -85 0
-7 -85 0
85 -1 2 -3 -4 -5 -6 7  0
-85 51 0
1 -86 0
2 -86 0
-3 -86 0
4 -86 0
5 -86 0
6 -86 0
-7 -86 0
86 -1 -2 3 -4 -5 -6 7  0
-86 51 0
-1 -87 0
-2 -87 0
-3 -87 0
4 -87 0
5 -87 0
6 -87 0
-7 -87 0
87 1 2 3 -4 -5 -6 7  0
-87 51 0
1 -88 0
2 -88 0
3 -88 0
-4 -88 0
5 -88 0
6 -88 0
-7 -88 0
88 -1 -2 -3 4 -5 -6 7  0
-88 51 0
-1 -89 0
-2 -89 0
3 -89 0
-4 -89 0
5 -89 0
6 -89 0
-7 -89 0
89 1 2 -3 4 -5 -6 7  0
-89 51 0
-1 -90 0
2 -90 0
-3 -90 0
-4 -90 0
5 -90 0
6 -90 0
-7 -90 0
90 1 -2 3 4 -5 -6 7  0
-90 51 0
1 -91 0
-2 -91 0
-3 -91 0
-4 -91 0
5 -91 0
6 -91 0
-7 -91 0
91 -1 2 3 4 -5 -6 7  0
-91 51 0
1 -92 0
2 -92 0
3 -92 0
4 -92 0
-5 -92 0
6 -92 0
-7 -92 0
92 -1 -2 -3 -4 5 -6 7  0
-92 51 0
-1 -93 0
-2 -93 0
3 -93 0
4 -93 0
-5 -93 0
6 -93 0
-7 -93 0
93 1 2 -3 -4 5 -6 7  0
-93 51 0
-1 -94 0
2 -94 0
-3 -94 0
4 -94 0
-5 -94 0
6 -94 0
-7 -94 0
94 1 -2 3 -4 5 -6 7  0
-94 51 0
1 -95 0
-2 -95 0
-3 -95 0
4 -95 0
-5 -95 0
6 -95 0
-7 -95 0
95 -1 2 3 -4 5 -6 7  0
-95 51 0
-1 -96 0
2 -96 0
3 -96 0
-4 -96 0
-5 -96 0
6 -96 0
-7 -96 0
96 1 -2 -3 4 5 -6 7  0
-96 51 0
1 -97 0
-2 -97 0
3 -97 0
-4 -97 0
-5 -97 0
6 -97 0
-7 -97 0
97 -1 2 -3 4 5 -6 7  0
-97 51 0
1 -98 0
2 -98 0
-3 -98 0
-4 -98 0
-5 -98 0
6 -98 0
-7 -98 0
98 -1 -2 3 4 5 -6 7  0
-98 51 0
-1 -99 0
-2 -99 0
-3 -99 0
-4 -99 0
-5 -99 0
6 -99 0
-7 -99 0
99 1 2 3 4 5 -6 7  0
-99 51 0
1 -100 0
2 -100 0
3 -100 0
4 -100 0
5 -100 0
-6 -100 0
-7 -100 0
100 -1 -2 -3 -4 -5 6 7  0
-100 51 0
-1 -101 0
-2 -101 0
3 -101 0
4 -101 0
5 -101 0
-6 -101 0
-7 -101 0
101 1 2 -3 -4 -5 6 7  0
-101 51 0
-1 -102 0
2 -102 0
-3 -102 0
4 -102 0
5 -102 0
-6 -102 0
-7 -102 0
102 1 -2 3 -4 -5 6 7  0
-102 51 0
1 -103 0
-2 -103 0
-3 -103 0
4 -103 0
5 -103 0
-6 -103 0
-7 -103 0
103 -1 2 3 -4 -5 6 7  0
-103 51 0
-1 -104 0
2 -104 0
3 -104 0
-4 -104 0
5 -104 0
-6 -104 0
-7 -104 0
104 1 -2 -3 4 -5 6 7  0
-104 51 0
1 -105 0
-2 -105 0
3 -105 0
-4 -105 0
5 -105 0
-6 -105 0
-7 -105 0
105 -1 2 -3 4 -5 6 7  0
-105 51 0
1 -106 0
2 -106 0
-3 -106 0
-4 -106 0
5 -106 0
-6 -106 0
-7 -106 0
106 -1 -2 3 4 -5 6 7  0
-106 51 0
-1 -107 0
-2 -107 0
-3 -107 0
-4 -107 0
5 -107 0
-6 -107 0
-7 -107 0
107 1 2 3 4 -5 6 7  0
-107 51 0
-1 -108 0
2 -108 0
3 -108 0
4 -108 0
-5 -108 0
-6 -108 0
-7 -108 0
108 1 -2 -3 -4 5 6 7  0
-108 51 0
1 -109 0
-2 -109 0
3 -109 0
4 -109 0
-5 -109 0
-6 -109 0
-7 -109 0
109 -1 2 -3 -4 5 6 7  0
-109 51 0
1 -110 0
2 -110 0
-3 -110 0
4 -110 0
-5 -110 0
-6 -110 0
-7 -110 0
110 -1 -2 3 -4 5 6 7  0
-110 51 0
-1 -111 0
-2 -111 0
-3 -111 0
4 -111 0
-5 -111 0
-6 -111 0
-7 -111 0
111 1 2 3 -4 5 6 7  0
-111 51 0
1 -112 0
2 -112 0
3 -112 0
-4 -112 0
-5 -112 0
-6 -112 0
-7 -112 0
112 -1 -2 -3 4 5 6 7  0
-112 51 0
-1 -113 0
-2 -113 0
3 -113 0
-4 -113 0
-5 -113 0
-6 -113 0
-7 -113 0
113 1 2 -3 4 5 6 7  0
-113 51 0
-1 -114 0
2 -114 0
-3 -114 0
-4 -114 0
-5 -114 0
-6 -114 0
-7 -114 0
114 1 -2 3 4 5 6 7  0
-114 51 0
1 -115 0
-2 -115 0
-3 -115 0
-4 -115 0
-5 -115 0
-6 -115 0
-7 -115 0
115 -1 2 3 4 5 6 7  0
-115 51 0
-51 52 53 54 55 56 57 58 59 60 61 62 63 64 65 66 67 68 69 70 71 72 73 74 75 76 77 78 79 80 81 82 83 84 85 86 87 88 89 90 91 92 93 94 95 96 97 98 99 100 101 102 103 104 105 106 107 108 109 110 111 112 113 114 115  0
1 -117 0
2 -117 0
3 -117 0
4 -117 0
117 -1 -2 -3 -4  0
-117 116 0
1 -118 0
2 -118 0
3 -118 0
5 -118 0
118 -1 -2 -3 -5  0
-118 116 0
1 -119 0
2 -119 0
4 -119 0
5 -119 0
119 -1 -2 -4 -5  0
-119 116 0
1 -120 0
3 -120 0
4 -120 0
5 -120 0
120 -1 -3 -4 -5  0
-120 116 0
2 -121 0
3 -121 0
4 -121 0
5 -121 0
121 -2 -3 -4 -5  0
-121 116 0
1 -122 0
2 -122 0
3 -122 0
6 -122 0
122 -1 -2 -3 -6  0
-122 116 0
1 -123 0
2 -123 0
4 -123 0
6 -123 0
123 -1 -2 -4 -6  0
-123 116 0
1 -124 0
3 -124 0
4 -124 0
6 -124 0
124 -1 -3 -4 -6  0
-124 116 0
2 -125 0
3 -125 0
4 -125 0
6 -125 0
125 -2 -3 -4 -6  0
-125 116 0
1 -126 0
2 -126 0
5 -126 0
6 -126 0
126 -1 -2 -5 -6  0
-126 116 0
1 -127 0
3 -127 0
5 -127 0
6 -127 0
127 -1 -3 -5 -6  0
-127 116 0
2 -128 0
3 -128 0
5 -128 0
6 -128 0
128 -2 -3 -5 -6  0
-128 116 0
1 -129 0
4 -129 0
5 -129 0
6 -129 0
129 -1 -4 -5 -6  0
-129 116 0
2 -130 0
4 -130 0
5 -130 0
6 -130 0
130 -2 -4 -5 -6  0
-130 116 0
3 -131 0
4 -131 0
5 -131 0
6 -131 0
131 -3 -4 -5 -6  0
-131 116 0
1 -132 0
2 -132 0
3 -132 0
7 -132 0
132 -1 -2 -3 -7  0
-132 116 0
1 -133 0
2 -133 0
4 -133 0
7 -133 0
133 -1 -2 -4 -7  0
-133 116 0
1 -134 0
3 -134 0
4 -134 0
7 -134 0
134 -1 -3 -4 -7  0
-134 116 0
2 -135 0
3 -135 0
4 -135 0
7 -135 0
135 -2 -3 -4 -7  0
-135 116 0
1 -136 0
2 -136 0
5 -136 0
7 -136 0
136 -1 -2 -5 -7  0
-136 116 0
1 -137 0
3 -137 0
5 -137 0
7 -137 0
137 -1 -3 -5 -7  0
-137 116 0
2 -138 0
3 -138 0
5 -138 0
7 -138 0
138 -2 -3 -5 -7  0
-138 116 0
1 -139 0
4 -139 0
5 -139 0
7 -139 0
139 -1 -4 -5 -7  0
-139 116 0
2 -140 0
4 -140 0
5 -140 0
7 -140 0
140 -2 -4 -5 -7  0
-140 116 0
3 -141 0
4 -141 0
5 -141 0
7 -141 0
141 -3 -4 -5 -7  0
-141 116 0
1 -142 0
2 -142 0
6 -142 0
7 -142 0
142 -1 -2 -6 -7  0
-142 116 0
1 -143 0
3 -143 0
6 -143 0
7 -143 0
143 -1 -3 -6 -7  0
-143 116 0
2 -144 0
3 -144 0
6 -144 0
7 -144 0
144 -2 -3 -6 -7  0
-144 116 0
1 -145 0
4 -145 0
6 -145 0
7 -145 0
145 -1 -4 -6 -7  0
-145 116 0
2 -146 0
4 -146 0
6 -146 0
7 -146 0
146 -2 -4 -6 -7  0
-146 116 0
3 -147 0
4 -147 0
6 -147 0
7 -147 0
147 -3 -4 -6 -7  0
-147 116 0
1 -148 0
5 -148 0
6 -148 0
7 -148 0
148 -1 -5 -6 -7  0
-148 116 0
2 -149 0
5 -149 0
6 -149 0
7 -149 0
149 -2 -5 -6 -7  0
-149 116 0
3 -150 0
5 -150 0
6 -150 0
7 -150 0
150 -3 -5 -6 -7  0
-150 116 0
4 -151 0
5 -151 0
6 -151 0
7 -151 0
151 -4 -5 -6 -7  0
-151 116 0
-116 117 118 119 120 121 122 123 124 125 126 127 128 129 130 131 132 133 134 135 136 137 138 139 140 141 142 143 144 145 146 147 148 149 150 151  0
